6
4
2
1 22
2 22
2
5 38
6 38
2
3 32
4 32
2
7 26
8 26
3
2
3 42
4 42
2
5 32
6 32
2
7 28
8 28
4
2
5 16
6 16
2
3 20
4 20
2
1 28
2 28
2
7 18
8 18
3
2
3 26
4 26
2
5 40
6 40
2
7 20
8 20
3
2
1 18
2 18
2
5 32
6 32
2
7 36
8 36
4
2
3 38
4 38
2
1 42
2 42
2
5 22
6 22
2
7 30
8 30
9
0 6 8 6 8 10 12 10 12
8 0 2 8 2 4 6 4 6
6 10 0 10 8 2 4 6 4
12 4 6 0 6 8 10 8 10
10 2 4 6 0 6 8 2 8
8 8 2 8 6 0 6 4 2
6 10 8 10 8 6 0 6 4
12 4 6 4 2 8 10 0 10
10 6 4 6 4 2 8 2 0
2
